problems/csplib-prob015/SchursLemma-models/noch/O2/lingeling/model_1_1-3-9-solution000001.eprime-solution
language ESSENCE' 1.0

letting boxes_PartitionAsSet_ExplicitR2_Occurrence be
        [[false, false, false, true, false, true, false, true, false; int(1..9)],
         [false, true, true, false, false, false, false, false, true; int(1..9)],
         [true, false, false, false, true, false, true, false, false; int(1..9)]; int(1..3)]
